c n orig vars 84
p cnf 86 219
1 2 -85 0
3 4 -85 0
5 6 -85 0
7 8 -85 0
9 10 -85 0
11 12 -85 0
13 14 -85 0
15 16 -85 0
17 18 -85 0
19 20 -85 0
21 22 -85 0
23 24 -85 0
25 26 -85 0
27 28 -85 0
29 37 45 53 61 69 77 -86 0
30 38 46 54 62 70 78 -86 0
31 39 47 55 63 71 79 -86 0
32 40 48 56 64 72 80 -86 0
33 41 49 57 65 73 81 -86 0
34 42 50 58 66 74 82 -86 0
35 43 51 59 67 75 83 -86 0
36 44 52 60 68 76 84 -86 0
-29 -30 -86 0
-29 -31 -86 0
-29 -32 -86 0
-29 -33 -86 0
-29 -34 -86 0
-29 -35 -86 0
-29 -36 -86 0
-30 -31 -86 0
-30 -32 -86 0
-30 -33 -86 0
-30 -34 -86 0
-30 -35 -86 0
-30 -36 -86 0
-31 -32 -86 0
-31 -33 -86 0
-31 -34 -86 0
-31 -35 -86 0
-31 -36 -86 0
-32 -33 -86 0
-32 -34 -86 0
-32 -35 -86 0
-32 -36 -86 0
-33 -34 -86 0
-33 -35 -86 0
-33 -36 -86 0
-34 -35 -86 0
-34 -36 -86 0
-35 -36 -86 0
-37 -38 -86 0
-37 -39 -86 0
-37 -40 -86 0
-37 -41 -86 0
-37 -42 -86 0
-37 -43 -86 0
-37 -44 -86 0
-38 -39 -86 0
-38 -40 -86 0
-38 -41 -86 0
-38 -42 -86 0
-38 -43 -86 0
-38 -44 -86 0
-39 -40 -86 0
-39 -41 -86 0
-39 -42 -86 0
-39 -43 -86 0
-39 -44 -86 0
-40 -41 -86 0
-40 -42 -86 0
-40 -43 -86 0
-40 -44 -86 0
-41 -42 -86 0
-41 -43 -86 0
-41 -44 -86 0
-42 -43 -86 0
-42 -44 -86 0
-43 -44 -86 0
-45 -46 -86 0
-45 -47 -86 0
-45 -48 -86 0
-45 -49 -86 0
-45 -50 -86 0
-45 -51 -86 0
-45 -52 -86 0
-46 -47 -86 0
-46 -48 -86 0
-46 -49 -86 0
-46 -50 -86 0
-46 -51 -86 0
-46 -52 -86 0
-47 -48 -86 0
-47 -49 -86 0
-47 -50 -86 0
-47 -51 -86 0
-47 -52 -86 0
-48 -49 -86 0
-48 -50 -86 0
-48 -51 -86 0
-48 -52 -86 0
-49 -50 -86 0
-49 -51 -86 0
-49 -52 -86 0
-50 -51 -86 0
-50 -52 -86 0
-51 -52 -86 0
-53 -54 -86 0
-53 -55 -86 0
-53 -56 -86 0
-53 -57 -86 0
-53 -58 -86 0
-53 -59 -86 0
-53 -60 -86 0
-54 -55 -86 0
-54 -56 -86 0
-54 -57 -86 0
-54 -58 -86 0
-54 -59 -86 0
-54 -60 -86 0
-55 -56 -86 0
-55 -57 -86 0
-55 -58 -86 0
-55 -59 -86 0
-55 -60 -86 0
-56 -57 -86 0
-56 -58 -86 0
-56 -59 -86 0
-56 -60 -86 0
-57 -58 -86 0
-57 -59 -86 0
-57 -60 -86 0
-58 -59 -86 0
-58 -60 -86 0
-59 -60 -86 0
-61 -62 -86 0
-61 -63 -86 0
-61 -64 -86 0
-61 -65 -86 0
-61 -66 -86 0
-61 -67 -86 0
-61 -68 -86 0
-62 -63 -86 0
-62 -64 -86 0
-62 -65 -86 0
-62 -66 -86 0
-62 -67 -86 0
-62 -68 -86 0
-63 -64 -86 0
-63 -65 -86 0
-63 -66 -86 0
-63 -67 -86 0
-63 -68 -86 0
-64 -65 -86 0
-64 -66 -86 0
-64 -67 -86 0
-64 -68 -86 0
-65 -66 -86 0
-65 -67 -86 0
-65 -68 -86 0
-66 -67 -86 0
-66 -68 -86 0
-67 -68 -86 0
-69 -70 -86 0
-69 -71 -86 0
-69 -72 -86 0
-69 -73 -86 0
-69 -74 -86 0
-69 -75 -86 0
-69 -76 -86 0
-70 -71 -86 0
-70 -72 -86 0
-70 -73 -86 0
-70 -74 -86 0
-70 -75 -86 0
-70 -76 -86 0
-71 -72 -86 0
-71 -73 -86 0
-71 -74 -86 0
-71 -75 -86 0
-71 -76 -86 0
-72 -73 -86 0
-72 -74 -86 0
-72 -75 -86 0
-72 -76 -86 0
-73 -74 -86 0
-73 -75 -86 0
-73 -76 -86 0
-74 -75 -86 0
-74 -76 -86 0
-75 -76 -86 0
-77 -78 -86 0
-77 -79 -86 0
-77 -80 -86 0
-77 -81 -86 0
-77 -82 -86 0
-77 -83 -86 0
-77 -84 -86 0
-78 -79 -86 0
-78 -80 -86 0
-78 -81 -86 0
-78 -82 -86 0
-78 -83 -86 0
-78 -84 -86 0
-79 -80 -86 0
-79 -81 -86 0
-79 -82 -86 0
-79 -83 -86 0
-79 -84 -86 0
-80 -81 -86 0
-80 -82 -86 0
-80 -83 -86 0
-80 -84 -86 0
-81 -82 -86 0
-81 -83 -86 0
-81 -84 -86 0
-82 -83 -86 0
-82 -84 -86 0
-83 -84 -86 0
85 86 0
